n = 24;
lu = [|-9, 406
      |-174, 9
      |-443, -425
      |-55, 529
      |-59, 106
      |186, 249
      |-201, -69
      |-85, 429
      |-430, -415
      |279, 294
      |-469, 324
      |-552, 140
      |-58, 403
      |-295, 115
      |-111, 497
      |-374, -288
      |42, 226
      |-500, 510
      |-403, -228
      |-266, 365
      |-34, 530
      |-472, -222
      |-546, 349
      |-267, 133|];
